results_rootrelaxation/bin012_080_006.srr.sol
solution status: optimal solution found
objective value:                               16.405
_var759_                                         0.64 	(obj:0)
_var785_                                        0.615 	(obj:1)
_var790_                                         0.58 	(obj:0)
_var795_                                         0.19 	(obj:3)
_var805_                                        0.215 	(obj:2)
_var809_                                        0.115 	(obj:2)
_var810_                                         0.26 	(obj:2)
_var815_                                         0.19 	(obj:2)
_var823_                                        0.165 	(obj:2)
_var832_                                        0.315 	(obj:2)
_var837_                           0.0449999999999997 	(obj:2)
_var846_                                         0.36 	(obj:2)
_var848_                                        0.425 	(obj:2)
_var850_                            0.160000000000001 	(obj:3)
_var852_                                        0.285 	(obj:0)
_var854_                           0.0299999999999995 	(obj:2)
_var856_                           0.0599999999999999 	(obj:1)
_var858_                           0.0749999999999997 	(obj:1)
_var859_                                        0.235 	(obj:1)
_var861_                                         0.21 	(obj:3)
_var863_                                         0.15 	(obj:1)
_var866_                           0.0700000000000001 	(obj:2)
_var874_                                         0.11 	(obj:0)
_var877_                                         0.36 	(obj:0)
_var882_                                         0.24 	(obj:1)
_var893_                                         0.15 	(obj:2)
_var895_                                         0.15 	(obj:2)
_var896_                                        0.135 	(obj:0)
_var897_                                        0.065 	(obj:2)
_var902_                                        0.285 	(obj:1)
_var906_                                        0.235 	(obj:2)
_var908_                           0.0399999999999998 	(obj:2)
_var909_                           0.0750000000000004 	(obj:2)
_var912_                                         0.15 	(obj:2)
_var914_                            0.105000000000001 	(obj:2)
_var915_                                         0.19 	(obj:2)
_var918_                                         0.32 	(obj:1)
_var919_                                        0.485 	(obj:2)
_var926_                                         0.18 	(obj:2)
_var929_                                         0.21 	(obj:2)
_var930_                                        0.105 	(obj:2)
_var931_                                        0.325 	(obj:2)
_var932_                                         0.15 	(obj:1)
_var939_                           0.0700000000000004 	(obj:2)
_var940_                                        0.245 	(obj:1)
_var942_                                        0.205 	(obj:2)
_var945_                                         0.15 	(obj:3)
_var949_                           0.0449999999999997 	(obj:2)
_var954_                           0.0849999999999998 	(obj:2)
_var955_                                        0.145 	(obj:2)
_var957_                                        0.285 	(obj:2)
_var965_                                         0.15 	(obj:3)
_var969_                           0.0849999999999998 	(obj:3)
_var970_                                        0.025 	(obj:2)
_var971_                           0.0550000000000002 	(obj:3)
