results_rootrelaxation/bin012_080_006.srr.log
SCIP version 8.0.3.5 [precision: 8 byte] [memory: block] [mode: optimized] [LP solver: Soplex 6.0.1.3] [GitHash: 438792519e]
Copyright (c) 2002-2023 Zuse Institute Berlin (ZIB)

External libraries: 
  Readline 8.1         GNU library for command line editing (gnu.org/s/readline)
  Soplex 6.0.1.3       Linear Programming Solver developed at Zuse Institute Berlin (soplex.zib.de) [GitHash: 713be0fe]
  CppAD 20180000.0     Algorithmic Differentiation of C++ algorithms developed by B. Bell (github.com/coin-or/CppAD)
  ZLIB 1.2.11          General purpose compression library by J. Gailly and M. Adler (zlib.net)
  bliss 0.77           Computing Graph Automorphism Groups by T. Junttila and P. Kaski (www.tcs.hut.fi/Software/bliss/)

user parameter file <scip.set> not found - using default parameters

srr/relaxation = TRUE

read problem <instances/bin012_080_006.srr>
============

Original problem: 
original problem has 0 variables (0 bin, 0 int, 0 impl, 0 cont) and 77 constraints

presolving:
presolving (1 rounds: 1 fast, 1 medium, 1 exhaustive):
 0 deleted vars, 0 deleted constraints, 0 added constraints, 0 tightened bounds, 0 added holes, 0 changed sides, 0 changed coefficients
 0 implications, 0 cliques
presolved problem has 0 variables (0 bin, 0 int, 0 impl, 0 cont) and 77 constraints
     77 constraints of type <linear>
Presolving Time: 0.00

 time | node  | left  |LP iter|LP it/n|mem/heur|mdpt |vars |cons |rows |cuts |sepa|confs|strbr|  dualbound   | primalbound  |  gap   | compl. 
  0.0s|     1 |     0 |     1 |     - |   710k |   0 |   1 |  77 |  77 |   0 |  0 |   0 |   0 |      --      |      --      |    Inf | unknown
r 0.0s|     1 |     0 |   943 |     - |simplero|   0 | 716 |  77 |  77 |   0 |  0 |   0 |   0 |      --      | 3.644065e+01 |    Inf | unknown
r 0.0s|     1 |     0 |   958 |     - |simplero|   0 | 727 |  77 |  77 |   0 |  0 |   0 |   0 |      --      | 3.526947e+01 |    Inf | unknown
r 0.1s|     1 |     0 |   986 |     - |simplero|   0 | 738 |  77 |  77 |   0 |  0 |   0 |   0 |      --      | 3.364585e+01 |    Inf | unknown
r 0.1s|     1 |     0 |  1034 |     - |simplero|   0 | 749 |  77 |  77 |   0 |  0 |   0 |   0 |      --      | 3.251958e+01 |    Inf | unknown
r 0.1s|     1 |     0 |  1041 |     - |simplero|   0 | 749 |  77 |  77 |   0 |  0 |   0 |   0 |      --      | 3.244333e+01 |    Inf | unknown
r 0.1s|     1 |     0 |  1097 |     - |simplero|   0 | 760 |  77 |  77 |   0 |  0 |   0 |   0 |      --      | 3.066651e+01 |    Inf | unknown
r 0.1s|     1 |     0 |  1101 |     - |simplero|   0 | 760 |  77 |  77 |   0 |  0 |   0 |   0 |      --      | 3.065520e+01 |    Inf | unknown
r 0.1s|     1 |     0 |  1130 |     - |simplero|   0 | 771 |  77 |  77 |   0 |  0 |   0 |   0 |      --      | 2.993998e+01 |    Inf | unknown
r 0.1s|     1 |     0 |  1137 |     - |simplero|   0 | 771 |  77 |  77 |   0 |  0 |   0 |   0 |      --      | 2.992281e+01 |    Inf | unknown
r 0.1s|     1 |     0 |  1174 |     - |simplero|   0 | 782 |  77 |  77 |   0 |  0 |   0 |   0 |      --      | 2.869465e+01 |    Inf | unknown
r 0.1s|     1 |     0 |  1194 |     - |simplero|   0 | 782 |  77 |  77 |   0 |  0 |   0 |   0 |      --      | 2.843036e+01 |    Inf | unknown
r 0.1s|     1 |     0 |  1253 |     - |simplero|   0 | 793 |  77 |  77 |   0 |  0 |   0 |   0 |      --      | 2.552365e+01 |    Inf | unknown
r 0.1s|     1 |     0 |  1279 |     - |simplero|   0 | 793 |  77 |  77 |   0 |  0 |   0 |   0 |      --      | 2.531365e+01 |    Inf | unknown
r 0.1s|     1 |     0 |  1280 |     - |simplero|   0 | 793 |  77 |  77 |   0 |  0 |   0 |   0 |      --      | 2.531243e+01 |    Inf | unknown
 time | node  | left  |LP iter|LP it/n|mem/heur|mdpt |vars |cons |rows |cuts |sepa|confs|strbr|  dualbound   | primalbound  |  gap   | compl. 
r 0.1s|     1 |     0 |  1350 |     - |simplero|   0 | 804 |  77 |  77 |   0 |  0 |   0 |   0 |      --      | 2.322286e+01 |    Inf | unknown
r 0.1s|     1 |     0 |  1359 |     - |simplero|   0 | 804 |  77 |  77 |   0 |  0 |   0 |   0 |      --      | 2.312818e+01 |    Inf | unknown
r 0.1s|     1 |     0 |  1364 |     - |simplero|   0 | 804 |  77 |  77 |   0 |  0 |   0 |   0 |      --      | 2.312212e+01 |    Inf | unknown
r 0.1s|     1 |     0 |  1422 |     - |simplero|   0 | 815 |  77 |  77 |   0 |  0 |   0 |   0 |      --      | 2.173630e+01 |    Inf | unknown
r 0.1s|     1 |     0 |  1453 |     - |simplero|   0 | 815 |  77 |  77 |   0 |  0 |   0 |   0 |      --      | 2.148620e+01 |    Inf | unknown
r 0.1s|     1 |     0 |  1456 |     - |simplero|   0 | 815 |  77 |  77 |   0 |  0 |   0 |   0 |      --      | 2.147609e+01 |    Inf | unknown
r 0.1s|     1 |     0 |  1457 |     - |simplero|   0 | 815 |  77 |  77 |   0 |  0 |   0 |   0 |      --      | 2.147608e+01 |    Inf | unknown
r 0.1s|     1 |     0 |  1498 |     - |simplero|   0 | 826 |  77 |  77 |   0 |  0 |   0 |   0 |      --      | 2.092022e+01 |    Inf | unknown
r 0.1s|     1 |     0 |  1515 |     - |simplero|   0 | 826 |  77 |  77 |   0 |  0 |   0 |   0 |      --      | 2.084006e+01 |    Inf | unknown
r 0.1s|     1 |     0 |  1562 |     - |simplero|   0 | 837 |  77 |  77 |   0 |  0 |   0 |   0 |      --      | 2.032865e+01 |    Inf | unknown
r 0.1s|     1 |     0 |  1582 |     - |simplero|   0 | 837 |  77 |  77 |   0 |  0 |   0 |   0 |      --      | 2.014448e+01 |    Inf | unknown
r 0.1s|     1 |     0 |  1584 |     - |simplero|   0 | 837 |  77 |  77 |   0 |  0 |   0 |   0 |      --      | 2.014425e+01 |    Inf | unknown
r 0.1s|     1 |     0 |  1618 |     - |simplero|   0 | 848 |  77 |  77 |   0 |  0 |   0 |   0 |      --      | 1.948038e+01 |    Inf | unknown
r 0.1s|     1 |     0 |  1620 |     - |simplero|   0 | 848 |  77 |  77 |   0 |  0 |   0 |   0 |      --      | 1.947752e+01 |    Inf | unknown
  0.1s|     1 |     0 |  1649 |     - |  4197k |   0 | 859 |  77 |  77 |   0 |  0 |   0 |   0 |      --      | 1.947752e+01 |    Inf | unknown
 time | node  | left  |LP iter|LP it/n|mem/heur|mdpt |vars |cons |rows |cuts |sepa|confs|strbr|  dualbound   | primalbound  |  gap   | compl. 
r 0.1s|     1 |     0 |  1649 |     - |simplero|   0 | 859 |  77 |  77 |   0 |  0 |   0 |   0 |      --      | 1.885008e+01 |    Inf | unknown
r 0.1s|     1 |     0 |  1659 |     - |simplero|   0 | 859 |  77 |  77 |   0 |  0 |   0 |   0 |      --      | 1.879298e+01 |    Inf | unknown
r 0.1s|     1 |     0 |  1666 |     - |simplero|   0 | 859 |  77 |  77 |   0 |  0 |   0 |   0 |      --      | 1.877953e+01 |    Inf | unknown
r 0.1s|     1 |     0 |  1725 |     - |simplero|   0 | 870 |  77 |  77 |   0 |  0 |   0 |   0 |      --      | 1.814982e+01 |    Inf | unknown
r 0.1s|     1 |     0 |  1729 |     - |simplero|   0 | 870 |  77 |  77 |   0 |  0 |   0 |   0 |      --      | 1.814141e+01 |    Inf | unknown
r 0.1s|     1 |     0 |  1757 |     - |simplero|   0 | 881 |  77 |  77 |   0 |  0 |   0 |   0 |      --      | 1.796474e+01 |    Inf | unknown
r 0.1s|     1 |     0 |  1764 |     - |simplero|   0 | 881 |  77 |  77 |   0 |  0 |   0 |   0 |      --      | 1.793119e+01 |    Inf | unknown
r 0.1s|     1 |     0 |  1795 |     - |simplero|   0 | 892 |  77 |  77 |   0 |  0 |   0 |   0 |      --      | 1.763920e+01 |    Inf | unknown
r 0.1s|     1 |     0 |  1803 |     - |simplero|   0 | 892 |  77 |  77 |   0 |  0 |   0 |   0 |      --      | 1.761643e+01 |    Inf | unknown
r 0.1s|     1 |     0 |  1837 |     - |simplero|   0 | 903 |  77 |  77 |   0 |  0 |   0 |   0 |      --      | 1.733476e+01 |    Inf | unknown
r 0.1s|     1 |     0 |  1844 |     - |simplero|   0 | 903 |  77 |  77 |   0 |  0 |   0 |   0 |      --      | 1.732775e+01 |    Inf | unknown
r 0.1s|     1 |     0 |  1847 |     - |simplero|   0 | 903 |  77 |  77 |   0 |  0 |   0 |   0 |      --      | 1.732497e+01 |    Inf | unknown
r 0.1s|     1 |     0 |  1869 |     - |simplero|   0 | 914 |  77 |  77 |   0 |  0 |   0 |   0 |      --      | 1.704395e+01 |    Inf | unknown
r 0.1s|     1 |     0 |  1888 |     - |simplero|   0 | 914 |  77 |  77 |   0 |  0 |   0 |   0 |      --      | 1.701053e+01 |    Inf | unknown
r 0.1s|     1 |     0 |  1912 |     - |simplero|   0 | 925 |  77 |  77 |   0 |  0 |   0 |   0 |      --      | 1.683929e+01 |    Inf | unknown
 time | node  | left  |LP iter|LP it/n|mem/heur|mdpt |vars |cons |rows |cuts |sepa|confs|strbr|  dualbound   | primalbound  |  gap   | compl. 
r 0.1s|     1 |     0 |  1940 |     - |simplero|   0 | 935 |  77 |  77 |   0 |  0 |   0 |   0 |      --      | 1.666798e+01 |    Inf | unknown
r 0.1s|     1 |     0 |  1961 |     - |simplero|   0 | 944 |  77 |  77 |   0 |  0 |   0 |   0 |      --      | 1.656481e+01 |    Inf | unknown
r 0.1s|     1 |     0 |  1963 |     - |simplero|   0 | 944 |  77 |  77 |   0 |  0 |   0 |   0 |      --      | 1.656318e+01 |    Inf | unknown
r 0.1s|     1 |     0 |  1973 |     - |simplero|   0 | 952 |  77 |  77 |   0 |  0 |   0 |   0 |      --      | 1.654098e+01 |    Inf | unknown
r 0.1s|     1 |     0 |  1996 |     - |simplero|   0 | 958 |  77 |  77 |   0 |  0 |   0 |   0 |      --      | 1.643590e+01 |    Inf | unknown
r 0.1s|     1 |     0 |  2004 |     - |simplero|   0 | 964 |  77 |  77 |   0 |  0 |   0 |   0 |      --      | 1.643077e+01 |    Inf | unknown
r 0.1s|     1 |     0 |  2013 |     - |simplero|   0 | 969 |  77 |  77 |   0 |  0 |   0 |   0 |      --      | 1.641667e+01 |    Inf | unknown
r 0.1s|     1 |     0 |  2017 |     - |simplero|   0 | 970 |  77 |  77 |   0 |  0 |   0 |   0 |      --      | 1.641558e+01 |    Inf | unknown
r 0.1s|     1 |     0 |  2019 |     - |simplero|   0 | 970 |  77 |  77 |   0 |  0 |   0 |   0 |      --      | 1.641525e+01 |    Inf | unknown
r 0.1s|     1 |     0 |  2025 |     - |simplero|   0 | 974 |  77 |  77 |   0 |  0 |   0 |   0 |      --      | 1.640500e+01 |    Inf | unknown
  0.1s|     1 |     0 |  2025 |     - |  4758k |   0 | 974 |  77 |  77 |   0 |  0 |   0 |   0 | 1.640500e+01 | 1.640500e+01 |   0.00%| unknown
  0.1s|     1 |     0 |  2025 |     - |  4758k |   0 | 974 |  77 |  77 |   0 |  0 |   0 |   0 | 1.640500e+01 | 1.640500e+01 |   0.00%| unknown

SCIP Status        : problem is solved [optimal solution found]
Solving Time (sec) : 0.11
Solving Nodes      : 1
Primal Bound       : +1.64050000000000e+01 (53 solutions)
Dual Bound         : +1.64050000000000e+01
Gap                : 0.00 %

written transformed problem to file <results_rootrelaxation/bin012_080_006.srr.lp>
written transformed problem to file <results_rootrelaxation/bin012_080_006.srr.cip>

written solution information to file <results_rootrelaxation/bin012_080_006.srr.sol>



